; PUSH 0x05 PUSH 0x06 DUP2 LT ISZERO ISZERO => PUSH 0x05 PUSH 0x01
(set-option :produce-proofs true)
; 
(set-info :status unknown)
(declare-fun storage_t (Int (_ BitVec 256)) (_ BitVec 256))
(declare-fun storage_s (Int (_ BitVec 256)) (_ BitVec 256))
(declare-fun exc_halt_t (Int) Bool)
(declare-fun exc_halt_s (Int) Bool)
(declare-fun sc_t (Int) (_ BitVec 6))
(declare-fun stack_t (Int (_ BitVec 6)) (_ BitVec 256))
(declare-fun stack_s (Int (_ BitVec 6)) (_ BitVec 256))
(declare-fun sc_s (Int) (_ BitVec 6))
(declare-fun used_gas_t (Int) Int)
(declare-fun used_gas_s (Int) Int)
(assert
 (let (($x845 (forall ((w (_ BitVec 256)) )(let ((?x10565 (storage_t 2 w)))
 (let ((?x5839 (storage_s 6 w)))
 (= ?x5839 ?x10565))))
 ))
 (let (($x9627 (exc_halt_t 2)))
 (let (($x772 (exc_halt_s 6)))
 (let (($x5844 (= $x772 $x9627)))
 (let (($x7020 (forall ((n (_ BitVec 6)) )(let ((?x2714 (sc_t 2)))
 (let (($x9801 (bvsle ?x2714 n)))
 (let ((?x814 (stack_t 2 n)))
 (let ((?x10995 (stack_s 6 n)))
 (let (($x1224 (= ?x10995 ?x814)))
 (or $x1224 $x9801)))))))
 ))
 (let ((?x2714 (sc_t 2)))
 (let ((?x926 (sc_s 6)))
 (let (($x684 (= ?x926 ?x2714)))
 (let ((?x5946 (used_gas_t 0)))
 (let ((?x5361 (used_gas_s 0)))
 (let (($x5382 (= ?x5361 ?x5946)))
 (let (($x9908 (forall ((w (_ BitVec 256)) )(let ((?x11076 (storage_t 0 w)))
 (let ((?x5703 (storage_s 0 w)))
 (= ?x5703 ?x11076))))
 ))
 (let (($x56 (exc_halt_t 0)))
 (let (($x57 (exc_halt_s 0)))
 (let (($x58 (= $x57 $x56)))
 (let (($x1766 (forall ((n (_ BitVec 6)) )(let ((?x63 (sc_t 0)))
 (let (($x11399 (bvsle ?x63 n)))
 (let ((?x2940 (stack_t 0 n)))
 (let ((?x11406 (stack_s 0 n)))
 (let (($x2344 (= ?x11406 ?x2940)))
 (or $x2344 $x11399)))))))
 ))
 (let ((?x63 (sc_t 0)))
 (let ((?x72 (sc_s 0)))
 (let (($x73 (= ?x72 ?x63)))
 (let (($x8377 (exc_halt_t 1)))
 (let (($x9056 (or $x8377 (not (= ((_ extract 6 6) (bvadd (_ bv1 7) (concat (_ bv0 1) (sc_t 1)))) (_ bv0 1))))))
 (let (($x8102 (= $x9627 $x9056)))
 (let (($x3428 (forall ((w (_ BitVec 256)) )(let ((?x222 (storage_t 1 w)))
 (let ((?x10565 (storage_t 2 w)))
 (= ?x10565 ?x222))))
 ))
 (let (($x5240 (forall ((n (_ BitVec 6)) )(let ((?x7154 (sc_t 1)))
 (let (($x2077 (bvsle ?x7154 n)))
 (or $x2077 (= (stack_t 2 n) (stack_t 1 n))))))
 ))
 (let (($x8876 (= ?x2714 (bvadd (_ bv1 6) (sc_t 1)))))
 (let (($x521 (= $x8377 (or $x56 (not (= ((_ extract 6 6) (bvadd (_ bv1 7) (concat (_ bv0 1) ?x63))) (_ bv0 1)))))))
 (let (($x4482 (forall ((w (_ BitVec 256)) )(let ((?x11076 (storage_t 0 w)))
 (let ((?x222 (storage_t 1 w)))
 (= ?x222 ?x11076))))
 ))
 (let (($x4257 (forall ((n (_ BitVec 6)) )(let ((?x63 (sc_t 0)))
 (let (($x11399 (bvsle ?x63 n)))
 (or (= (stack_t 1 n) (stack_t 0 n)) $x11399))))
 ))
 (let ((?x7154 (sc_t 1)))
 (let (($x3155 (= ?x7154 (bvadd (_ bv1 6) ?x63))))
 (let (($x6950 (= $x772 (or (exc_halt_s 5) (not (bvsle (_ bv0 6) (bvadd (_ bv63 6) (sc_s 5))))))))
 (let (($x4653 (forall ((w (_ BitVec 256)) )(let ((?x8439 (storage_s 5 w)))
 (let ((?x5839 (storage_s 6 w)))
 (= ?x5839 ?x8439))))
 ))
 (let (($x2851 (forall ((n (_ BitVec 6)) )(or (bvsle (bvadd (_ bv63 6) (sc_s 5)) n) (= (stack_s 6 n) (stack_s 5 n))))
 ))
 (let ((?x4319 (sc_s 5)))
 (let (($x9550 (= ?x926 ?x4319)))
 (let (($x6820 (= (stack_s 6 (bvadd (_ bv63 6) ?x926)) (ite (= (stack_s 5 (bvadd (_ bv63 6) ?x4319)) (_ bv0 256)) (_ bv1 256) (_ bv0 256)))))
 (let (($x11317 (exc_halt_s 5)))
 (let (($x3601 (= $x11317 (or (exc_halt_s 4) (not (bvsle (_ bv0 6) (bvadd (_ bv63 6) (sc_s 4))))))))
 (let (($x1316 (forall ((w (_ BitVec 256)) )(let ((?x5562 (storage_s 4 w)))
 (let ((?x8439 (storage_s 5 w)))
 (= ?x8439 ?x5562))))
 ))
 (let (($x5084 (forall ((n (_ BitVec 6)) )(let ((?x4305 (sc_s 4)))
 (let ((?x4400 (bvadd (_ bv63 6) ?x4305)))
 (let (($x1698 (bvsle ?x4400 n)))
 (or $x1698 (= (stack_s 5 n) (stack_s 4 n)))))))
 ))
 (let ((?x4305 (sc_s 4)))
 (let (($x3039 (= ?x4319 ?x4305)))
 (let ((?x11178 (bvadd (_ bv63 6) ?x4319)))
 (let ((?x623 (stack_s 5 ?x11178)))
 (let (($x7172 (exc_halt_s 4)))
 (let (($x547 (= $x7172 (or (exc_halt_s 3) (not (bvsle (_ bv0 6) (bvadd (_ bv62 6) (sc_s 3))))))))
 (let (($x7792 (forall ((w (_ BitVec 256)) )(let ((?x9140 (storage_s 3 w)))
 (let ((?x5562 (storage_s 4 w)))
 (= ?x5562 ?x9140))))
 ))
 (let (($x5806 (forall ((n (_ BitVec 6)) )(let ((?x275 (sc_s 3)))
 (let ((?x2713 (bvadd (_ bv62 6) ?x275)))
 (let (($x6325 (bvsle ?x2713 n)))
 (or (= (stack_s 4 n) (stack_s 3 n)) $x6325)))))
 ))
 (let ((?x275 (sc_s 3)))
 (let ((?x6326 (bvadd (_ bv63 6) ?x275)))
 (let (($x7642 (= ?x4305 ?x6326)))
 (let ((?x1488 (ite (bvule (stack_s 3 (bvadd (_ bv62 6) ?x275)) (stack_s 3 ?x6326)) (_ bv0 256) (_ bv1 256))))
 (let ((?x4400 (bvadd (_ bv63 6) ?x4305)))
 (let ((?x7089 (stack_s 4 ?x4400)))
 (let (($x9863 (not (= ((_ extract 6 6) (bvadd (_ bv1 7) (concat (_ bv0 1) (sc_s 2)))) (_ bv0 1)))))
 (let (($x5391 (not (bvsle (_ bv0 6) (bvadd (_ bv62 6) (sc_s 2))))))
 (let (($x247 (exc_halt_s 2)))
 (let (($x292 (exc_halt_s 3)))
 (let (($x5186 (forall ((w (_ BitVec 256)) )(let ((?x2307 (storage_s 2 w)))
 (let ((?x9140 (storage_s 3 w)))
 (= ?x9140 ?x2307))))
 ))
 (let (($x7150 (forall ((n (_ BitVec 6)) )(let ((?x218 (sc_s 2)))
 (let ((?x11717 (bvadd (_ bv62 6) ?x218)))
 (let (($x10841 (bvsle ?x11717 n)))
 (or (= (stack_s 3 n) (stack_s 2 n)) $x10841)))))
 ))
 (let (($x1829 (= ?x275 (bvadd (_ bv1 6) (sc_s 2)))))
 (let (($x5288 (= (stack_s 3 (bvadd (_ bv63 6) (sc_s 2))) (stack_s 2 (bvadd (_ bv63 6) (sc_s 2))))))
 (let ((?x218 (sc_s 2)))
 (let ((?x11717 (bvadd (_ bv62 6) ?x218)))
 (let ((?x6047 (stack_s 2 ?x11717)))
 (let (($x3809 (not (= ((_ extract 6 6) (bvadd (_ bv1 7) (concat (_ bv0 1) (sc_s 1)))) (_ bv0 1)))))
 (let (($x189 (exc_halt_s 1)))
 (let (($x9982 (forall ((w (_ BitVec 256)) )(let ((?x441 (storage_s 1 w)))
 (let ((?x2307 (storage_s 2 w)))
 (= ?x2307 ?x441))))
 ))
 (let (($x5345 (forall ((n (_ BitVec 6)) )(or (= (stack_s 2 n) (stack_s 1 n)) (bvsle (sc_s 1) n)))
 ))
 (let (($x10974 (= ?x218 (bvadd (_ bv1 6) (sc_s 1)))))
 (let (($x5870 (= $x189 (or $x57 (not (= ((_ extract 6 6) (bvadd (_ bv1 7) (concat (_ bv0 1) ?x72))) (_ bv0 1)))))))
 (let (($x8844 (forall ((w (_ BitVec 256)) )(let ((?x5703 (storage_s 0 w)))
 (let ((?x441 (storage_s 1 w)))
 (= ?x441 ?x5703))))
 ))
 (let (($x10289 (forall ((n (_ BitVec 6)) )(let ((?x72 (sc_s 0)))
 (let (($x11860 (bvsle ?x72 n)))
 (or (= (stack_s 1 n) (stack_s 0 n)) $x11860))))
 ))
 (let ((?x154 (sc_s 1)))
 (let (($x11668 (= ?x154 (bvadd (_ bv1 6) ?x72))))
 (let (($x5942 (forall ((w (_ BitVec 256)) )(let ((?x5703 (storage_s 0 w)))
 (= ?x5703 (_ bv0 256))))
 ))
 (let (($x7534 (= ?x5361 0)))
 (let (($x11580 (not $x57)))
 (let (($x1074 (= ?x72 (_ bv0 6))))
 (and $x1074 $x11580 $x7534 $x5942 (= (stack_s 1 ?x72) (_ bv5 256)) (= (used_gas_s 1) (+ 3 ?x5361)) $x11668 $x10289 $x8844 $x5870 (= (stack_s 2 ?x154) (_ bv6 256)) (= (used_gas_s 2) (+ 3 (used_gas_s 1))) $x10974 $x5345 $x9982 (= $x247 (or $x189 $x3809)) (= (stack_s 3 ?x6326) ?x6047) (= (stack_s 3 ?x11717) ?x6047) $x5288 (= (used_gas_s 3) (+ 3 (used_gas_s 2))) $x1829 $x7150 $x5186 (= $x292 (or $x247 $x5391 $x9863)) (= ?x7089 ?x1488) (= (used_gas_s 4) (+ 3 (used_gas_s 3))) $x7642 $x5806 $x7792 $x547 (= ?x623 (ite (= ?x7089 (_ bv0 256)) (_ bv1 256) (_ bv0 256))) (= (used_gas_s 5) (+ 3 (used_gas_s 4))) $x3039 $x5084 $x1316 $x3601 $x6820 (= (used_gas_s 6) (+ 3 (used_gas_s 5))) $x9550 $x2851 $x4653 $x6950 (= (stack_t 1 ?x63) (_ bv5 256)) (= (used_gas_t 1) (+ 3 ?x5946)) $x3155 $x4257 $x4482 $x521 (= (stack_t 2 ?x7154) (_ bv1 256)) (= (used_gas_t 2) (+ 3 (used_gas_t 1))) $x8876 $x5240 $x3428 $x8102 $x73 $x1766 $x58 $x9908 $x5382 (not (and $x684 $x7020 $x5844 $x845)))))))))))))))))))))))))))))))))))))))))))))))))))))))))))))))))))))))))))))))))))
(check-sat)
(get-proof)
